c description: tiling of 
c generator: CNFgen (0.9.0)
c copyright: (C) 2012-2020 Massimo Lauria <massimo.lauria@uniroma1.it>
c url: https://massimolauria.net/cnfgen
c
p cnf 20 97
-1 -2 0
-1 -14 0
-2 -14 0
1 2 14 0
-1 -4 0
-1 -10 0
-1 -12 0
-1 -18 0
-4 -10 0
-4 -12 0
-4 -18 0
-10 -12 0
-10 -18 0
-12 -18 0
1 4 10 12 18 0
-1 -4 0
-1 -14 0
-4 -14 0
1 4 14 0
-2 -7 0
-2 -13 0
-7 -13 0
2 7 13 0
-2 -7 0
-2 -14 0
-7 -14 0
2 7 14 0
-3 -4 0
-3 -10 0
-3 -11 0
-3 -12 0
-3 -17 0
-4 -10 0
-4 -11 0
-4 -12 0
-4 -17 0
-10 -11 0
-10 -12 0
-10 -17 0
-11 -12 0
-11 -17 0
-12 -17 0
3 4 10 11 12 17 0
-3 -6 0
-3 -10 0
-3 -11 0
-3 -15 0
-6 -10 0
-6 -11 0
-6 -15 0
-10 -11 0
-10 -15 0
-11 -15 0
3 6 10 11 15 0
-3 -7 0
-3 -13 0
-7 -13 0
3 7 13 0
-3 -10 0
-3 -11 0
-3 -13 0
-10 -11 0
-10 -13 0
-11 -13 0
3 10 11 13 0
-4 -10 0
-4 -12 0
-4 -20 0
-10 -12 0
-10 -20 0
-12 -20 0
4 10 12 20 0
-4 -18 0
4 18 0
5 0
-6 -11 0
-6 -16 0
-11 -16 0
6 11 16 0
-6 -16 0
6 16 0
8 0
-9 -10 0
-9 -17 0
-10 -17 0
9 10 17 0
-9 -17 0
9 17 0
-11 -15 0
-11 -20 0
-15 -20 0
11 15 20 0
-12 -15 0
-12 -20 0
-15 -20 0
12 15 20 0
19 0